unsat
(:max-memory         17.95
 :memory             17.95
 :nlsat-conflicts    3
 :nlsat-propagations 9
 :nlsat-stages       3
 :num-allocs         18355
 :rlimit-count       1592
 :time               0.00)
